3144
8736
6326
7434
8775
6685
2492
9251
1244
5551
6581
9719
6197
9573
4736
4194
7770
5414
10142
953
1603
1516
3876
8908
1644
1791
8631
7772
1619
3418
7825
5167
3344
4869
3427
3857
5896
9067
9127
1656
6281
1976
992
5733
9477
5278
6974
8101
4949
4744
4279
